p tw 1600 24001 7 
1 8 
1 901 
2 9 
2 10 
2 902 
3 7 
3 10 
3 1371 
4 8 
4 9 
4 1372 
5 7 
5 9 
5 1431 
6 8 
6 10 
6 1432 
11 17 
11 18 
11 101 
12 19 
12 20 
12 102 
13 17 
13 20 
13 131 
14 18 
14 19 
14 132 
15 17 
15 19 
15 1511 
16 18 
16 20 
16 1512 
21 27 
21 28 
21 1001 
22 29 
22 30 
22 1002 
23 27 
23 30 
23 1091 
24 28 
24 29 
24 1092 
25 27 
25 29 
25 1471 
26 28 
26 30 
26 1472 
31 37 
31 38 
31 491 
32 39 
32 40 
32 492 
33 37 
33 40 
33 601 
34 38 
34 39 
34 602 
35 37 
35 39 
35 1121 
36 38 
36 40 
36 1122 
41 47 
41 48 
41 401 
42 49 
42 50 
42 402 
43 47 
43 50 
43 1171 
44 48 
44 49 
44 1172 
45 47 
45 49 
45 1581 
46 48 
46 50 
46 1582 
51 57 
51 58 
51 441 
52 59 
52 60 
52 442 
53 57 
53 60 
53 551 
54 58 
54 59 
54 552 
55 57 
55 59 
55 1251 
56 58 
56 60 
56 1252 
61 67 
61 68 
61 1241 
62 69 
62 70 
62 1242 
63 67 
63 70 
63 1253 
64 68 
64 69 
64 1254 
65 67 
65 69 
65 1421 
66 68 
66 70 
66 1422 
71 77 
71 78 
71 861 
72 79 
72 80 
72 862 
73 77 
73 80 
73 903 
74 78 
74 79 
74 904 
75 77 
75 79 
75 1531 
76 78 
76 80 
76 1532 
81 87 
81 88 
81 241 
82 89 
82 90 
82 242 
83 87 
83 90 
83 571 
84 88 
84 89 
84 572 
85 87 
85 89 
85 771 
86 88 
86 90 
86 772 
91 97 
91 98 
91 1041 
92 99 
92 100 
92 1042 
93 97 
93 100 
93 1301 
94 98 
94 99 
94 1302 
95 97 
95 99 
95 1361 
96 98 
96 100 
96 1362 
101 107 
101 108 
102 109 
102 110 
103 107 
103 110 
103 171 
104 108 
104 109 
104 172 
105 107 
105 109 
105 1513 
106 108 
106 110 
106 1514 
111 117 
111 118 
111 443 
112 119 
112 120 
112 444 
113 117 
113 120 
113 841 
114 118 
114 119 
114 842 
115 117 
115 119 
115 1281 
116 118 
116 120 
116 1282 
121 127 
121 128 
121 341 
122 129 
122 130 
122 342 
123 127 
123 130 
123 741 
124 128 
124 129 
124 742 
125 127 
125 129 
125 1261 
126 128 
126 130 
126 1262 
131 137 
131 138 
132 139 
132 140 
133 137 
133 140 
133 1221 
134 138 
134 139 
134 1222 
135 137 
135 139 
135 1381 
136 138 
136 140 
136 1382 
141 147 
141 148 
141 221 
142 149 
142 150 
142 222 
143 147 
143 150 
143 991 
144 148 
144 149 
144 992 
145 147 
145 149 
145 1401 
146 148 
146 150 
146 1402 
151 157 
151 158 
151 173 
152 159 
152 160 
152 174 
153 157 
153 160 
153 381 
154 158 
154 159 
154 382 
155 157 
155 159 
155 941 
156 158 
156 160 
156 942 
161 167 
161 168 
161 421 
162 169 
162 170 
162 422 
163 167 
163 170 
163 481 
164 168 
164 169 
164 482 
165 167 
165 169 
165 541 
166 168 
166 170 
166 542 
171 177 
171 178 
172 179 
172 180 
173 177 
173 180 
174 178 
174 179 
175 177 
175 179 
175 621 
176 178 
176 180 
176 622 
181 187 
181 188 
181 281 
182 189 
182 190 
182 282 
183 187 
183 190 
183 761 
184 188 
184 189 
184 762 
185 187 
185 189 
185 1011 
186 188 
186 190 
186 1012 
191 197 
191 198 
191 501 
192 199 
192 200 
192 502 
193 197 
193 200 
193 581 
194 198 
194 199 
194 582 
195 197 
195 199 
195 1191 
196 198 
196 200 
196 1192 
201 207 
201 208 
201 623 
202 209 
202 210 
202 624 
203 207 
203 210 
203 1291 
204 208 
204 209 
204 1292 
205 207 
205 209 
205 1561 
206 208 
206 210 
206 1562 
211 217 
211 218 
211 251 
212 219 
212 220 
212 252 
213 217 
213 220 
213 1051 
214 218 
214 219 
214 1052 
215 217 
215 219 
215 1193 
216 218 
216 220 
216 1194 
221 227 
221 228 
222 229 
222 230 
223 227 
223 230 
223 651 
224 228 
224 229 
224 652 
225 227 
225 229 
225 993 
226 228 
226 230 
226 994 
231 237 
231 238 
231 561 
232 239 
232 240 
232 562 
233 237 
233 240 
233 1363 
234 238 
234 239 
234 1364 
235 237 
235 239 
235 1501 
236 238 
236 240 
236 1502 
241 247 
241 248 
242 249 
242 250 
243 247 
243 250 
243 351 
244 248 
244 249 
244 352 
245 247 
245 249 
245 411 
246 248 
246 250 
246 412 
251 257 
251 258 
252 259 
252 260 
253 257 
253 260 
253 311 
254 258 
254 259 
254 312 
255 257 
255 259 
255 563 
256 258 
256 260 
256 564 
261 267 
261 268 
261 471 
262 269 
262 270 
262 472 
263 267 
263 270 
263 661 
264 268 
264 269 
264 662 
265 267 
265 269 
265 1043 
266 268 
266 270 
266 1044 
271 277 
271 278 
271 301 
272 279 
272 280 
272 302 
273 277 
273 280 
273 461 
274 278 
274 279 
274 462 
275 277 
275 279 
275 1131 
276 278 
276 280 
276 1132 
281 287 
281 288 
282 289 
282 290 
283 287 
283 290 
283 751 
284 288 
284 289 
284 752 
285 287 
285 289 
285 821 
286 288 
286 290 
286 822 
291 297 
291 298 
291 321 
292 299 
292 300 
292 322 
293 297 
293 300 
293 843 
294 298 
294 299 
294 844 
295 297 
295 299 
295 1433 
296 298 
296 300 
296 1434 
301 307 
301 308 
302 309 
302 310 
303 307 
303 310 
303 1061 
304 308 
304 309 
304 1062 
305 307 
305 309 
305 1201 
306 308 
306 310 
306 1202 
311 317 
311 318 
312 319 
312 320 
313 317 
313 320 
313 1303 
314 318 
314 319 
314 1304 
315 317 
315 319 
315 1441 
316 318 
316 320 
316 1442 
321 327 
321 328 
322 329 
322 330 
323 327 
323 330 
323 451 
324 328 
324 329 
324 452 
325 327 
325 329 
325 691 
326 328 
326 330 
326 692 
331 337 
331 338 
331 371 
332 339 
332 340 
332 372 
333 337 
333 340 
333 391 
334 338 
334 339 
334 392 
335 337 
335 339 
335 851 
336 338 
336 340 
336 852 
341 347 
341 348 
342 349 
342 350 
343 347 
343 350 
343 863 
344 348 
344 349 
344 864 
345 347 
345 349 
345 1411 
346 348 
346 350 
346 1412 
351 357 
351 358 
352 359 
352 360 
353 357 
353 360 
353 503 
354 358 
354 359 
354 504 
355 357 
355 359 
355 1503 
356 358 
356 360 
356 1504 
361 367 
361 368 
361 711 
362 369 
362 370 
362 712 
363 367 
363 370 
363 1101 
364 368 
364 369 
364 1102 
365 367 
365 369 
365 1505 
366 368 
366 370 
366 1506 
371 377 
371 378 
372 379 
372 380 
373 377 
373 380 
373 981 
374 378 
374 379 
374 982 
375 377 
375 379 
375 1423 
376 378 
376 380 
376 1424 
381 387 
381 388 
382 389 
382 390 
383 387 
383 390 
383 631 
384 388 
384 389 
384 632 
385 387 
385 389 
385 641 
386 388 
386 390 
386 642 
391 397 
391 398 
392 399 
392 400 
393 397 
393 400 
393 871 
394 398 
394 399 
394 872 
395 397 
395 399 
395 1081 
396 398 
396 400 
396 1082 
401 407 
401 408 
402 409 
402 410 
403 407 
403 410 
403 1321 
404 408 
404 409 
404 1322 
405 407 
405 409 
405 1583 
406 408 
406 410 
406 1584 
411 417 
411 418 
412 419 
412 420 
413 417 
413 420 
413 831 
414 418 
414 419 
414 832 
415 417 
415 419 
415 951 
416 418 
416 420 
416 952 
421 427 
421 428 
422 429 
422 430 
423 427 
423 430 
423 565 
424 428 
424 429 
424 566 
425 427 
425 429 
425 681 
426 428 
426 430 
426 682 
431 437 
431 438 
431 1083 
432 439 
432 440 
432 1084 
433 437 
433 440 
433 1181 
434 438 
434 439 
434 1182 
435 437 
435 439 
435 1231 
436 438 
436 440 
436 1232 
441 447 
441 448 
442 449 
442 450 
443 447 
443 450 
444 448 
444 449 
445 447 
445 449 
445 801 
446 448 
446 450 
446 802 
451 457 
451 458 
452 459 
452 460 
453 457 
453 460 
453 1283 
454 458 
454 459 
454 1284 
455 457 
455 459 
455 1461 
456 458 
456 460 
456 1462 
461 467 
461 468 
462 469 
462 470 
463 467 
463 470 
463 1491 
464 468 
464 469 
464 1492 
465 467 
465 469 
465 1551 
466 468 
466 470 
466 1552 
471 477 
471 478 
472 479 
472 480 
473 477 
473 480 
473 643 
474 478 
474 479 
474 644 
475 477 
475 479 
475 1111 
476 478 
476 480 
476 1112 
481 487 
481 488 
482 489 
482 490 
483 487 
483 490 
483 1133 
484 488 
484 489 
484 1134 
485 487 
485 489 
485 1195 
486 488 
486 490 
486 1196 
491 497 
491 498 
492 499 
492 500 
493 497 
493 500 
493 553 
494 498 
494 499 
494 554 
495 497 
495 499 
495 971 
496 498 
496 500 
496 972 
501 507 
501 508 
502 509 
502 510 
503 507 
503 510 
504 508 
504 509 
505 507 
505 509 
505 611 
506 508 
506 510 
506 612 
511 517 
511 518 
511 693 
512 519 
512 520 
512 694 
513 517 
513 520 
513 1383 
514 518 
514 519 
514 1384 
515 517 
515 519 
515 1553 
516 518 
516 520 
516 1554 
521 527 
521 528 
521 1243 
522 529 
522 530 
522 1244 
523 527 
523 530 
523 1271 
524 528 
524 529 
524 1272 
525 527 
525 529 
525 1451 
526 528 
526 530 
526 1452 
531 537 
531 538 
531 1031 
532 539 
532 540 
532 1032 
533 537 
533 540 
533 1071 
534 538 
534 539 
534 1072 
535 537 
535 539 
535 1183 
536 538 
536 540 
536 1184 
541 547 
541 548 
542 549 
542 550 
543 547 
543 550 
543 591 
544 548 
544 549 
544 592 
545 547 
545 549 
545 1161 
546 548 
546 550 
546 1162 
551 557 
551 558 
552 559 
552 560 
553 557 
553 560 
554 558 
554 559 
555 557 
555 559 
555 1481 
556 558 
556 560 
556 1482 
561 567 
561 568 
562 569 
562 570 
563 567 
563 570 
564 568 
564 569 
565 567 
565 569 
566 568 
566 570 
571 577 
571 578 
572 579 
572 580 
573 577 
573 580 
573 1151 
574 578 
574 579 
574 1152 
575 577 
575 579 
575 1311 
576 578 
576 580 
576 1312 
581 587 
581 588 
582 589 
582 590 
583 587 
583 590 
583 1021 
584 588 
584 589 
584 1022 
585 587 
585 589 
585 1153 
586 588 
586 590 
586 1154 
591 597 
591 598 
592 599 
592 600 
593 597 
593 600 
593 1045 
594 598 
594 599 
594 1046 
595 597 
595 599 
595 1141 
596 598 
596 600 
596 1142 
601 607 
601 608 
602 609 
602 610 
603 607 
603 610 
603 721 
604 608 
604 609 
604 722 
605 607 
605 609 
605 1313 
606 608 
606 610 
606 1314 
611 617 
611 618 
612 619 
612 620 
613 617 
613 620 
613 931 
614 618 
614 619 
614 932 
615 617 
615 619 
615 1473 
616 618 
616 620 
616 1474 
621 627 
621 628 
622 629 
622 630 
623 627 
623 630 
624 628 
624 629 
625 627 
625 629 
625 891 
626 628 
626 630 
626 892 
631 637 
631 638 
632 639 
632 640 
633 637 
633 640 
633 1263 
634 638 
634 639 
634 1264 
635 637 
635 639 
635 1571 
636 638 
636 640 
636 1572 
641 647 
641 648 
642 649 
642 650 
643 647 
643 650 
644 648 
644 649 
645 647 
645 649 
645 1233 
646 648 
646 650 
646 1234 
651 657 
651 658 
652 659 
652 660 
653 657 
653 660 
653 1163 
654 658 
654 659 
654 1164 
655 657 
655 659 
655 1493 
656 658 
656 660 
656 1494 
661 667 
661 668 
662 669 
662 670 
663 667 
663 670 
663 1443 
664 668 
664 669 
664 1444 
665 667 
665 669 
665 1563 
666 668 
666 670 
666 1564 
671 677 
671 678 
671 1323 
672 679 
672 680 
672 1324 
673 677 
673 680 
673 1413 
674 678 
674 679 
674 1414 
675 677 
675 679 
675 1591 
676 678 
676 680 
676 1592 
681 687 
681 688 
682 689 
682 690 
683 687 
683 690 
683 743 
684 688 
684 689 
684 744 
685 687 
685 689 
685 1373 
686 688 
686 690 
686 1374 
691 697 
691 698 
692 699 
692 700 
693 697 
693 700 
694 698 
694 699 
695 697 
695 699 
695 911 
696 698 
696 700 
696 912 
701 707 
701 708 
701 753 
702 709 
702 710 
702 754 
703 707 
703 710 
703 921 
704 708 
704 709 
704 922 
705 707 
705 709 
705 1113 
706 708 
706 710 
706 1114 
711 717 
711 718 
712 719 
712 720 
713 717 
713 720 
713 1093 
714 718 
714 719 
714 1094 
715 717 
715 719 
715 1403 
716 718 
716 720 
716 1404 
721 727 
721 728 
722 729 
722 730 
723 727 
723 730 
723 811 
724 728 
724 729 
724 812 
725 727 
725 729 
725 1463 
726 728 
726 730 
726 1464 
731 737 
731 738 
731 791 
732 739 
732 740 
732 792 
733 737 
733 740 
733 1095 
734 738 
734 739 
734 1096 
735 737 
735 739 
735 1211 
736 738 
736 740 
736 1212 
741 747 
741 748 
742 749 
742 750 
743 747 
743 750 
744 748 
744 749 
745 747 
745 749 
745 1325 
746 748 
746 750 
746 1326 
751 757 
751 758 
752 759 
752 760 
753 757 
753 760 
754 758 
754 759 
755 757 
755 759 
755 1573 
756 758 
756 760 
756 1574 
761 767 
761 768 
762 769 
762 770 
763 767 
763 770 
763 803 
764 768 
764 769 
764 804 
765 767 
765 769 
765 881 
766 768 
766 770 
766 882 
771 777 
771 778 
772 779 
772 780 
773 777 
773 780 
773 1135 
774 778 
774 779 
774 1136 
775 777 
775 779 
775 1465 
776 778 
776 780 
776 1466 
781 787 
781 788 
781 1003 
782 789 
782 790 
782 1004 
783 787 
783 790 
783 1515 
784 788 
784 789 
784 1516 
785 787 
785 789 
785 1593 
786 788 
786 790 
786 1594 
791 797 
791 798 
792 799 
792 800 
793 797 
793 800 
793 913 
794 798 
794 799 
794 914 
795 797 
795 799 
795 1255 
796 798 
796 800 
796 1256 
801 807 
801 808 
802 809 
802 810 
803 807 
803 810 
804 808 
804 809 
805 807 
805 809 
805 1305 
806 808 
806 810 
806 1306 
811 817 
811 818 
812 819 
812 820 
813 817 
813 820 
813 823 
814 818 
814 819 
814 824 
815 817 
815 819 
815 873 
816 818 
816 820 
816 874 
821 827 
821 828 
822 829 
822 830 
823 827 
823 830 
824 828 
824 829 
825 827 
825 829 
825 961 
826 828 
826 830 
826 962 
831 837 
831 838 
832 839 
832 840 
833 837 
833 840 
833 953 
834 838 
834 839 
834 954 
835 837 
835 839 
835 1533 
836 838 
836 840 
836 1534 
841 847 
841 848 
842 849 
842 850 
843 847 
843 850 
844 848 
844 849 
845 847 
845 849 
845 1331 
846 848 
846 850 
846 1332 
851 857 
851 858 
852 859 
852 860 
853 857 
853 860 
853 1013 
854 858 
854 859 
854 1014 
855 857 
855 859 
855 1315 
856 858 
856 860 
856 1316 
861 867 
861 868 
862 869 
862 870 
863 867 
863 870 
864 868 
864 869 
865 867 
865 869 
865 1293 
866 868 
866 870 
866 1294 
871 877 
871 878 
872 879 
872 880 
873 877 
873 880 
874 878 
874 879 
875 877 
875 879 
875 1483 
876 878 
876 880 
876 1484 
881 887 
881 888 
882 889 
882 890 
883 887 
883 890 
883 1053 
884 888 
884 889 
884 1054 
885 887 
885 889 
885 1485 
886 888 
886 890 
886 1486 
891 897 
891 898 
892 899 
892 900 
893 897 
893 900 
893 1425 
894 898 
894 899 
894 1426 
895 897 
895 899 
895 1445 
896 898 
896 900 
896 1446 
901 907 
901 908 
902 909 
902 910 
903 907 
903 910 
904 908 
904 909 
905 907 
905 909 
905 1495 
906 908 
906 910 
906 1496 
911 917 
911 918 
912 919 
912 920 
913 917 
913 920 
914 918 
914 919 
915 917 
915 919 
915 1351 
916 918 
916 920 
916 1352 
921 927 
921 928 
922 929 
922 930 
923 927 
923 930 
923 1245 
924 928 
924 929 
924 1246 
925 927 
925 929 
925 1273 
926 928 
926 930 
926 1274 
931 937 
931 938 
932 939 
932 940 
933 937 
933 940 
933 1453 
934 938 
934 939 
934 1454 
935 937 
935 939 
935 1585 
936 938 
936 940 
936 1586 
941 947 
941 948 
942 949 
942 950 
943 947 
943 950 
943 1213 
944 948 
944 949 
944 1214 
945 947 
945 949 
945 1541 
946 948 
946 950 
946 1542 
951 957 
951 958 
952 959 
952 960 
953 957 
953 960 
954 958 
954 959 
955 957 
955 959 
955 1023 
956 958 
956 960 
956 1024 
961 967 
961 968 
962 969 
962 970 
963 967 
963 970 
963 1103 
964 968 
964 969 
964 1104 
965 967 
965 969 
965 1123 
966 968 
966 970 
966 1124 
971 977 
971 978 
972 979 
972 980 
973 977 
973 980 
973 1115 
974 978 
974 979 
974 1116 
975 977 
975 979 
975 1385 
976 978 
976 980 
976 1386 
981 987 
981 988 
982 989 
982 990 
983 987 
983 990 
983 995 
984 988 
984 989 
984 996 
985 987 
985 989 
985 1595 
986 988 
986 990 
986 1596 
991 997 
991 998 
992 999 
992 1000 
993 997 
993 1000 
994 998 
994 999 
995 997 
995 999 
996 998 
996 1000 
1001 1007 
1001 1008 
1002 1009 
1002 1010 
1003 1007 
1003 1010 
1004 1008 
1004 1009 
1005 1007 
1005 1009 
1005 1033 
1006 1008 
1006 1010 
1006 1034 
1011 1017 
1011 1018 
1012 1019 
1012 1020 
1013 1017 
1013 1020 
1014 1018 
1014 1019 
1015 1017 
1015 1019 
1015 1333 
1016 1018 
1016 1020 
1016 1334 
1021 1027 
1021 1028 
1022 1029 
1022 1030 
1023 1027 
1023 1030 
1024 1028 
1024 1029 
1025 1027 
1025 1029 
1025 1341 
1026 1028 
1026 1030 
1026 1342 
1031 1037 
1031 1038 
1032 1039 
1032 1040 
1033 1037 
1033 1040 
1034 1038 
1034 1039 
1035 1037 
1035 1039 
1035 1155 
1036 1038 
1036 1040 
1036 1156 
1041 1047 
1041 1048 
1042 1049 
1042 1050 
1043 1047 
1043 1050 
1044 1048 
1044 1049 
1045 1047 
1045 1049 
1046 1048 
1046 1050 
1051 1057 
1051 1058 
1052 1059 
1052 1060 
1053 1057 
1053 1060 
1054 1058 
1054 1059 
1055 1057 
1055 1059 
1055 1405 
1056 1058 
1056 1060 
1056 1406 
1061 1067 
1061 1068 
1062 1069 
1062 1070 
1063 1067 
1063 1070 
1063 1275 
1064 1068 
1064 1069 
1064 1276 
1065 1067 
1065 1069 
1065 1343 
1066 1068 
1066 1070 
1066 1344 
1071 1077 
1071 1078 
1072 1079 
1072 1080 
1073 1077 
1073 1080 
1073 1143 
1074 1078 
1074 1079 
1074 1144 
1075 1077 
1075 1079 
1075 1215 
1076 1078 
1076 1080 
1076 1216 
1081 1087 
1081 1088 
1082 1089 
1082 1090 
1083 1087 
1083 1090 
1084 1088 
1084 1089 
1085 1087 
1085 1089 
1085 1365 
1086 1088 
1086 1090 
1086 1366 
1091 1097 
1091 1098 
1092 1099 
1092 1100 
1093 1097 
1093 1100 
1094 1098 
1094 1099 
1095 1097 
1095 1099 
1096 1098 
1096 1100 
1101 1107 
1101 1108 
1102 1109 
1102 1110 
1103 1107 
1103 1110 
1104 1108 
1104 1109 
1105 1107 
1105 1109 
1105 1435 
1106 1108 
1106 1110 
1106 1436 
1111 1117 
1111 1118 
1112 1119 
1112 1120 
1113 1117 
1113 1120 
1114 1118 
1114 1119 
1115 1117 
1115 1119 
1116 1118 
1116 1120 
1121 1127 
1121 1128 
1122 1129 
1122 1130 
1123 1127 
1123 1130 
1124 1128 
1124 1129 
1125 1127 
1125 1129 
1125 1285 
1126 1128 
1126 1130 
1126 1286 
1131 1137 
1131 1138 
1132 1139 
1132 1140 
1133 1137 
1133 1140 
1134 1138 
1134 1139 
1135 1137 
1135 1139 
1136 1138 
1136 1140 
1141 1147 
1141 1148 
1142 1149 
1142 1150 
1143 1147 
1143 1150 
1144 1148 
1144 1149 
1145 1147 
1145 1149 
1145 1535 
1146 1148 
1146 1150 
1146 1536 
1151 1157 
1151 1158 
1152 1159 
1152 1160 
1153 1157 
1153 1160 
1154 1158 
1154 1159 
1155 1157 
1155 1159 
1156 1158 
1156 1160 
1161 1167 
1161 1168 
1162 1169 
1162 1170 
1163 1167 
1163 1170 
1164 1168 
1164 1169 
1165 1167 
1165 1169 
1165 1521 
1166 1168 
1166 1170 
1166 1522 
1171 1177 
1171 1178 
1172 1179 
1172 1180 
1173 1177 
1173 1180 
1173 1295 
1174 1178 
1174 1179 
1174 1296 
1175 1177 
1175 1179 
1175 1335 
1176 1178 
1176 1180 
1176 1336 
1181 1187 
1181 1188 
1182 1189 
1182 1190 
1183 1187 
1183 1190 
1184 1188 
1184 1189 
1185 1187 
1185 1189 
1185 1391 
1186 1188 
1186 1190 
1186 1392 
1191 1197 
1191 1198 
1192 1199 
1192 1200 
1193 1197 
1193 1200 
1194 1198 
1194 1199 
1195 1197 
1195 1199 
1196 1198 
1196 1200 
1201 1207 
1201 1208 
1202 1209 
1202 1210 
1203 1207 
1203 1210 
1203 1555 
1204 1208 
1204 1209 
1204 1556 
1205 1207 
1205 1209 
1205 1575 
1206 1208 
1206 1210 
1206 1576 
1211 1217 
1211 1218 
1212 1219 
1212 1220 
1213 1217 
1213 1220 
1214 1218 
1214 1219 
1215 1217 
1215 1219 
1216 1218 
1216 1220 
1221 1227 
1221 1228 
1222 1229 
1222 1230 
1223 1227 
1223 1230 
1223 1265 
1224 1228 
1224 1229 
1224 1266 
1225 1227 
1225 1229 
1225 1523 
1226 1228 
1226 1230 
1226 1524 
1231 1237 
1231 1238 
1232 1239 
1232 1240 
1233 1237 
1233 1240 
1234 1238 
1234 1239 
1235 1237 
1235 1239 
1235 1393 
1236 1238 
1236 1240 
1236 1394 
1241 1247 
1241 1248 
1242 1249 
1242 1250 
1243 1247 
1243 1250 
1244 1248 
1244 1249 
1245 1247 
1245 1249 
1246 1248 
1246 1250 
1251 1257 
1251 1258 
1252 1259 
1252 1260 
1253 1257 
1253 1260 
1254 1258 
1254 1259 
1255 1257 
1255 1259 
1256 1258 
1256 1260 
1261 1267 
1261 1268 
1262 1269 
1262 1270 
1263 1267 
1263 1270 
1264 1268 
1264 1269 
1265 1267 
1265 1269 
1266 1268 
1266 1270 
1271 1277 
1271 1278 
1272 1279 
1272 1280 
1273 1277 
1273 1280 
1274 1278 
1274 1279 
1275 1277 
1275 1279 
1276 1278 
1276 1280 
1281 1287 
1281 1288 
1282 1289 
1282 1290 
1283 1287 
1283 1290 
1284 1288 
1284 1289 
1285 1287 
1285 1289 
1286 1288 
1286 1290 
1291 1297 
1291 1298 
1292 1299 
1292 1300 
1293 1297 
1293 1300 
1294 1298 
1294 1299 
1295 1297 
1295 1299 
1296 1298 
1296 1300 
1301 1307 
1301 1308 
1302 1309 
1302 1310 
1303 1307 
1303 1310 
1304 1308 
1304 1309 
1305 1307 
1305 1309 
1306 1308 
1306 1310 
1311 1317 
1311 1318 
1312 1319 
1312 1320 
1313 1317 
1313 1320 
1314 1318 
1314 1319 
1315 1317 
1315 1319 
1316 1318 
1316 1320 
1321 1327 
1321 1328 
1322 1329 
1322 1330 
1323 1327 
1323 1330 
1324 1328 
1324 1329 
1325 1327 
1325 1329 
1326 1328 
1326 1330 
1331 1337 
1331 1338 
1332 1339 
1332 1340 
1333 1337 
1333 1340 
1334 1338 
1334 1339 
1335 1337 
1335 1339 
1336 1338 
1336 1340 
1341 1347 
1341 1348 
1342 1349 
1342 1350 
1343 1347 
1343 1350 
1344 1348 
1344 1349 
1345 1347 
1345 1349 
1345 1375 
1346 1348 
1346 1350 
1346 1376 
1351 1357 
1351 1358 
1352 1359 
1352 1360 
1353 1357 
1353 1360 
1353 1395 
1354 1358 
1354 1359 
1354 1396 
1355 1357 
1355 1359 
1355 1415 
1356 1358 
1356 1360 
1356 1416 
1361 1367 
1361 1368 
1362 1369 
1362 1370 
1363 1367 
1363 1370 
1364 1368 
1364 1369 
1365 1367 
1365 1369 
1366 1368 
1366 1370 
1371 1377 
1371 1378 
1372 1379 
1372 1380 
1373 1377 
1373 1380 
1374 1378 
1374 1379 
1375 1377 
1375 1379 
1376 1378 
1376 1380 
1381 1387 
1381 1388 
1382 1389 
1382 1390 
1383 1387 
1383 1390 
1384 1388 
1384 1389 
1385 1387 
1385 1389 
1386 1388 
1386 1390 
1391 1397 
1391 1398 
1392 1399 
1392 1400 
1393 1397 
1393 1400 
1394 1398 
1394 1399 
1395 1397 
1395 1399 
1396 1398 
1396 1400 
1401 1407 
1401 1408 
1402 1409 
1402 1410 
1403 1407 
1403 1410 
1404 1408 
1404 1409 
1405 1407 
1405 1409 
1406 1408 
1406 1410 
1411 1417 
1411 1418 
1412 1419 
1412 1420 
1413 1417 
1413 1420 
1414 1418 
1414 1419 
1415 1417 
1415 1419 
1416 1418 
1416 1420 
1421 1427 
1421 1428 
1422 1429 
1422 1430 
1423 1427 
1423 1430 
1424 1428 
1424 1429 
1425 1427 
1425 1429 
1426 1428 
1426 1430 
1431 1437 
1431 1438 
1432 1439 
1432 1440 
1433 1437 
1433 1440 
1434 1438 
1434 1439 
1435 1437 
1435 1439 
1436 1438 
1436 1440 
1441 1447 
1441 1448 
1442 1449 
1442 1450 
1443 1447 
1443 1450 
1444 1448 
1444 1449 
1445 1447 
1445 1449 
1446 1448 
1446 1450 
1451 1457 
1451 1458 
1452 1459 
1452 1460 
1453 1457 
1453 1460 
1454 1458 
1454 1459 
1455 1457 
1455 1459 
1455 1543 
1456 1458 
1456 1460 
1456 1544 
1461 1467 
1461 1468 
1462 1469 
1462 1470 
1463 1467 
1463 1470 
1464 1468 
1464 1469 
1465 1467 
1465 1469 
1466 1468 
1466 1470 
1471 1477 
1471 1478 
1472 1479 
1472 1480 
1473 1477 
1473 1480 
1474 1478 
1474 1479 
1475 1477 
1475 1479 
1475 1545 
1476 1478 
1476 1480 
1476 1546 
1481 1487 
1481 1488 
1482 1489 
1482 1490 
1483 1487 
1483 1490 
1484 1488 
1484 1489 
1485 1487 
1485 1489 
1486 1488 
1486 1490 
1491 1497 
1491 1498 
1492 1499 
1492 1500 
1493 1497 
1493 1500 
1494 1498 
1494 1499 
1495 1497 
1495 1499 
1496 1498 
1496 1500 
1501 1507 
1501 1508 
1502 1509 
1502 1510 
1503 1507 
1503 1510 
1504 1508 
1504 1509 
1505 1507 
1505 1509 
1506 1508 
1506 1510 
1511 1517 
1511 1518 
1512 1519 
1512 1520 
1513 1517 
1513 1520 
1514 1518 
1514 1519 
1515 1517 
1515 1519 
1516 1518 
1516 1520 
1521 1527 
1521 1528 
1522 1529 
1522 1530 
1523 1527 
1523 1530 
1524 1528 
1524 1529 
1525 1527 
1525 1529 
1525 1565 
1526 1528 
1526 1530 
1526 1566 
1531 1537 
1531 1538 
1532 1539 
1532 1540 
1533 1537 
1533 1540 
1534 1538 
1534 1539 
1535 1537 
1535 1539 
1536 1538 
1536 1540 
1541 1547 
1541 1548 
1542 1549 
1542 1550 
1543 1547 
1543 1550 
1544 1548 
1544 1549 
1545 1547 
1545 1549 
1546 1548 
1546 1550 
1551 1557 
1551 1558 
1552 1559 
1552 1560 
1553 1557 
1553 1560 
1554 1558 
1554 1559 
1555 1557 
1555 1559 
1556 1558 
1556 1560 
1561 1567 
1561 1568 
1562 1569 
1562 1570 
1563 1567 
1563 1570 
1564 1568 
1564 1569 
1565 1567 
1565 1569 
1566 1568 
1566 1570 
1571 1577 
1571 1578 
1572 1579 
1572 1580 
1573 1577 
1573 1580 
1574 1578 
1574 1579 
1575 1577 
1575 1579 
1576 1578 
1576 1580 
1581 1587 
1581 1588 
1582 1589 
1582 1590 
1583 1587 
1583 1590 
1584 1588 
1584 1589 
1585 1587 
1585 1589 
1586 1588 
1586 1590 
1591 1597 
1591 1598 
1592 1599 
1592 1600 
1593 1597 
1593 1600 
1594 1598 
1594 1599 
1595 1597 
1595 1599 
1596 1598 
1596 1600 
